184
0 55 16 106 119 13 75 61 49 80 
139 159 53 54 36 45 125 109 164 168 
156 154 3 102 143 37 120 99 177 64 
129 180 107 161 163 74 121 179 6 25 
155 141 153 128 52 35 41 170 96 110 
152 85 42 86 84 165 132 173 127 91 
87 147 17 92 19 83 137 30 11 105 
146 123 104 182 111 70 101 158 32 8 
33 71 21 7 113 181 38 176 103 149 
10 65 122 135 56 136 26 95 18 130 
20 58 166 73 12 98 51 79 160 50 
140 9 131 57 172 39 93 62 118 151 
5 157 68 40 28 169 34 15 66 175 
4 69 60 22 114 47 89 78 162 29 
142 183 1 76 115 24 174 126 94 88 
14 27 90 112 44 133 167 97 77 23 
59 144 2 138 116 43 178 134 63 171 
117 67 31 150 46 82 48 81 145 108 
124 72 100 148 
